09-routing/solutions/XSH-n20-k4-49.opt.sol
Route #1: 20 4 13 8
Route #2: 10 18 9 7
Route #3: 1 12 11 19 15 2 5 14
Route #4: 6 3 16 17
Cost 1045
